#
# 06_CH4 tpss/aug-cc-pvt(+d)z
#
! tpss d3bj aug-cc-pvt(+d)z def2/j opt xyzfile numfreq

*xyz 0 1
C           -0.000019863          0.000010602          0.000009334
H            0.553735898          0.798934116          0.495881879
H            0.682720826         -0.812639290         -0.253504979
H           -0.777369102         -0.373181326          0.668786102
H           -0.459167758          0.386975897         -0.911172431
*

%pal
nprocs 24
end

