#
# 08_ClCN tpss/aug-cc-pvt(+d)z
#
! tpss d3bj aug-cc-pvt(+d)z def2/j opt xyzfile numfreq

*xyz 0 1
Cl          0.000000000          0.000000000          1.411403479
C           0.000000000          0.000000000         -0.154728403
N           0.000000000          0.000000000         -1.256675070
*

%pal
nprocs 24
end

