#
# 11_CO tpss/aug-cc-pvt(+d)z
#
! tpss d3bj aug-cc-pvt(+d)z def2/j opt xyzfile numfreq

*xyz 0 1
O            0.563546865          0.000000013          0.000000013
C           -0.563546865         -0.000000013         -0.000000013
*

%pal
nprocs 24
end

