#
# 23_HOCl tpss/aug-cc-pvt(+d)z
#
! tpss d3bj aug-cc-pvt(+d)z def2/j opt xyzfile numfreq

*xyz 0 1
O           -0.345461674          0.464587564          0.000000200
Cl           1.234116896         -0.128671365         -0.000000477
H           -0.888655222         -0.335916194          0.000000276
*

%pal
nprocs 24
end

