#
# 25_NH3 tpss/aug-cc-pvt(+d)z
#
! tpss d3bj aug-cc-pvt(+d)z def2/j opt xyzfile numfreq

*xyz 0 1
N           -0.002380744         -0.000680215          0.281658228
H           -0.519925577         -0.785969146         -0.100203124
H           -0.419725272          0.844282023         -0.095448346
H            0.942031593         -0.057632663         -0.086006759
*

%pal
nprocs 24
end

