#
# 26_N2O tpss/aug-cc-pvt(+d)z
#
! tpss d3bj aug-cc-pvt(+d)z def2/j opt xyzfile numfreq

*xyz 0 1
N           -0.000000050          0.000000033         -1.122425998
N           -0.000000002          0.000000001         -0.001729371
O            0.000000052         -0.000000034          1.183155373
*

%pal
nprocs 24
end

