#
# 27_OCS tpss/aug-cc-pvt(+d)z
#
! tpss d3bj aug-cc-pvt(+d)z def2/j opt xyzfile numfreq

*xyz 0 1
O            0.000000135         -0.000000067         -1.270762684
C            0.000000037         -0.000000044         -0.116817432
S           -0.000000173          0.000000112          1.446580115
*

%pal
nprocs 24
end

