#
# 29_SiO tpss/aug-cc-pvt(+d)z
#
! tpss d3bj aug-cc-pvt(+d)z def2/j opt xyzfile numfreq

*xyz 0 1
Si           0.000000077         -0.000000063         -0.754567114
O           -0.000000077          0.000000063          0.754567114
*

%pal
nprocs 24
end

