#
# 33_SO tpss/aug-cc-pvt(+d)z
#
! tpss d3bj aug-cc-pvt(+d)z def2/j opt xyzfile numfreq

*xyz 0 3
S            0.000000327         -0.000000134          0.002547174
O           -0.000000327          0.000000134          1.483667376
*

%pal
nprocs 24
end

