#
# 01_BH3 tpssh/aug-cc-pvt(+d)z
#
! tpssh d3bj aug-cc-pvt(+d)z def2/jk opt xyzfile numfreq

*xyz 0 1
  B   0.00058990711441     -0.00015241661398     -0.19828246925039
  H   -0.40433656286270     -1.04111721537816      0.22036101748058
  H   -0.17315147828119      1.00175941266214      0.42559464068470
  H   0.57689815002948      0.03951021333001     -1.24154545391489
*

%pal
nprocs 24
end

