#
# 05_CF2 tpssh/aug-cc-pvt(+d)z
#
! tpssh d3bj aug-cc-pvt(+d)z def2/jk opt xyzfile numfreq

*xyz 0 1
C           -0.000000060          0.136363107         -0.000000094
F            0.000000126          0.931818632         -1.030127802
F           -0.000000065          0.931818256          1.030127896
*

%pal
nprocs 24
end

