#
# 07_Cl2 tpssh/aug-cc-pvt(+d)z
#
! tpssh d3bj aug-cc-pvt(+d)z def2/jk opt xyzfile numfreq

*xyz 0 1
Cl          -0.996696800          0.000000000         -0.000000015
Cl           0.996696800         -0.000000000          0.000000015
*

%pal
nprocs 24
end

