#
# 09_ClF tpssh/aug-cc-pvt(+d)z
#
! tpssh d3bj aug-cc-pvt(+d)z def2/jk opt xyzfile numfreq

*xyz 0 1
Cl           0.814871513         -0.000000011          0.000000056
F           -0.814871513          0.000000011         -0.000000056
*

%pal
nprocs 24
end

