#
# 10_CO2 tpssh/aug-cc-pvt(+d)z
#
! tpssh d3bj aug-cc-pvt(+d)z def2/jk opt xyzfile numfreq

*xyz 0 1
O           -1.161057866         -0.000000006         -0.000000007
O            1.161057864          0.000000007          0.000000007
C            0.000000003         -0.000000000         -0.000000000
*

%pal
nprocs 24
end

