#
# 12_CS2 tpssh/aug-cc-pvt(+d)z
#
! tpssh d3bj aug-cc-pvt(+d)z def2/jk opt xyzfile numfreq

*xyz 0 1
S           0.000000000         0.000000000          1.550022582
C           0.000000000         0.000000000          0.000000099
S           0.000000000         0.000000000         -1.550022427
*

%pal
nprocs 24
end

