#
# 13_CS tpssh/aug-cc-pvt(+d)z
#
! tpssh d3bj aug-cc-pvt(+d)z def2/jk opt xyzfile numfreq

*xyz 0 1
C           -0.000000200         -0.000000107          0.006732513
S            0.000000200          0.000000107          1.532967485
*

%pal
nprocs 24
end

