#
# 14_F2 tpssh/aug-cc-pvt(+d)z
#
! tpssh d3bj aug-cc-pvt(+d)z def2/jk opt xyzfile numfreq

*xyz 0 1
F           -0.000000102         -0.000000195         -0.694208668
F            0.000000102          0.000000195          0.694208668
*

%pal
nprocs 24
end

