#
# 15_H2CO tpssh/aug-cc-pvt(+d)z
#
! tpssh d3bj aug-cc-pvt(+d)z def2/jk opt xyzfile numfreq

*xyz 0 1
C           -0.008748659          0.001155597          0.000561564
O            1.179984630         -0.157249909         -0.074738871
H           -0.478730294          0.986582604         -0.186527529
H           -0.692514064         -0.830555519          0.260712785
*

%pal
nprocs 24
end

