#
# 16_H2CS tpssh/aug-cc-pvt(+d)z
#
! tpssh d3bj aug-cc-pvt(+d)z def2/jk opt xyzfile numfreq

*xyz 0 1
C           -0.111638623          0.008887387          0.001240584
S            1.485344299         -0.118821268         -0.016313713
H           -0.659438957          0.273908722          0.905432026
H           -0.714270859         -0.164037136         -0.890279494
*

%pal
nprocs 24
end

