#
# 17_H2O tpssh/aug-cc-pvt(+d)z
#
! tpssh d3bj aug-cc-pvt(+d)z def2/jk opt xyzfile numfreq

*xyz 0 1
O            0.004834854          0.003524701         -0.002982157
H            0.274272539          0.890632971          0.255471383
H            0.605092602         -0.239557672         -0.714989224
*

%pal
nprocs 24
end

