#
# 19_HCl tpssh/aug-cc-pvt(+d)z
#
! tpssh d3bj aug-cc-pvt(+d)z def2/jk opt xyzfile numfreq

*xyz 0 1
Cl           0.640695451         -0.000000005          0.000000019
H           -0.640695451          0.000000005         -0.000000019
*

%pal
nprocs 24
end

