#
# 21_HF tpssh/aug-cc-pvt(+d)z
#
! tpssh d3bj aug-cc-pvt(+d)z def2/jk opt xyzfile numfreq

*xyz 0 1
F            0.461912633          0.000000024          0.000000002
H           -0.461912633         -0.000000024         -0.000000002
*

%pal
nprocs 24
end

