#
# 22_HNO tpssh/aug-cc-pvt(+d)z
#
! tpssh d3bj aug-cc-pvt(+d)z def2/jk opt xyzfile numfreq

*xyz 0 1
N           -0.069457921          0.436213507         -0.000000038
O            0.951837723         -0.192997589          0.000000094
H           -0.882379797         -0.243215918         -0.000000056
*

%pal
nprocs 24
end

