#
# 28_PH3 tpssh/aug-cc-pvt(+d)z
#
! tpssh d3bj aug-cc-pvt(+d)z def2/jk opt xyzfile numfreq

*xyz 0 1
P           -0.005097099         -0.001153152          0.571181006
H           -0.658920833         -0.993994611         -0.198293924
H           -0.529115053          1.069739515         -0.192973374
H            1.193132979         -0.074591751         -0.179913708
*

%pal
nprocs 24
end

