#
# 32_S2 tpssh/aug-cc-pvt(+d)z
#
! tpssh d3bj aug-cc-pvt(+d)z def2/jk opt xyzfile numfreq

*xyz 0 3
S           -0.000000000         -0.000000000          0.005070157
S            0.000000000          0.000000000          1.891814433
*

%pal
nprocs 24
end

