memory 144 GB

molecule {
0 1
C    -0.657620034885  -0.052000958615  -0.000252973166
C     0.657568519484   0.052010499680   0.000276600928
H    -1.240721308472   0.001619980779  -0.910816015914
H    -1.225741740994  -0.196853731952   0.909839302952
H     1.225686431392   0.196845730793  -0.909810155871
H     1.240620717176  -0.001638115682   0.910864901305}

set basis aug-cc-pV(Q+d)Z
 
optimize("wB97X-V")
frequencies("wB97X-V")