memory 144 GB

molecule {
0 1
P    -0.005288538836  -0.001261325633   0.582654711522
H    -0.638971348422  -0.963200982555  -0.202120563939
H    -0.512370653812   1.037161065013  -0.196640584663
H     1.156630535778  -0.072698756825  -0.183893562920}

set basis aug-cc-pV(Q+d)Z
 
optimize("wB97X-V")
frequencies("wB97X-V")