memory 144 GB

molecule {
0 1
Si    0.000000000000   0.000000000000  -0.756930277547
O     0.000000000000   0.000000000000   0.756930277547}

set basis aug-cc-pV(Q+d)Z
 
optimize("wB97X-V")
frequencies("wB97X-V")