memory 144 GB

molecule {
0 1
C 0.0000000000 0.0000000000 0.0000000000
F 0.0000000000 0.0000000000 1.2971000000
F 1.2538059978 0.0000000000 -0.3323235319
}

set dynamic_level 1
set basis cc-pV(D+d)Z
 
optimize("wB97X-V")
frequencies("wB97X-V")
