memory 144 GB

molecule {
0 1
H 0.0000000000 0.0000000000 0.0000000000
C 0.0000000000 0.0000000000 1.0879000000
H 1.0256819563 0.0000000000 1.4505333333
H -0.5128409782 0.8882666304 1.4505333333
H -0.5128409782 -0.8882666304 1.4505333333
}

set dynamic_level 1
set basis cc-pV(D+d)Z
set opt_type irc
set full_hess_every 0
 
optimize("wB97X-V")
frequencies("wB97X-V")
