memory 144 GB

molecule {
0 1
O     0.013698323616   0.010141564828  -0.007165043560
H     0.268966483226   0.893269695541   0.262654076446
H     0.601535188188  -0.248811260993  -0.717989031489}

set basis aug-cc-pV(Q+d)Z
 
optimize("wB97X-V")
frequencies("wB97X-V")