memory 144 GB

molecule {
0 1
Si    0.000000000000   0.000000000000  -0.756930277547
O     0.000000000000   0.000000000000   0.756930277547}

set basis aug-cc-pV(Q+d)Z
 
optimize("WB97M-V")
frequencies("WB97M-V")