memory 144 GB

molecule {
0 1
C    -0.598181067229   0.000000000000  -0.000006350127
C     0.598181067229   0.000000000000   0.000006350127
H    -1.655944048834   0.000000000000  -0.000097167519
H     1.655944048834   0.000000000000   0.000097167519}

set basis cc-pV(Q+d)Z
 
optimize("wB97X-V")
frequencies("wB97X-V")