memory 144 GB

molecule {
0 1
F     0.000000000000   0.000000000000  -0.689762285134
F     0.000000000000   0.000000000000   0.689762285134}

set basis cc-pV(Q+d)Z
 
optimize("wB97X-V")
frequencies("wB97X-V")