memory 144 GB

molecule {
0 1
Cl    0.632559482786   0.000000000000   0.000000000000
H    -0.632559482786   0.000000000000   0.000000000000}

set basis cc-pV(Q+d)Z
 
optimize("wB97X-V")
frequencies("wB97X-V")