memory 144 GB

molecule {
0 1
F     0.463464000728   0.000000000000   0.000000000000
H    -0.463464000728   0.000000000000   0.000000000000}

set basis cc-pV(Q+d)Z
 
optimize("wB97X-V")
frequencies("wB97X-V")