memory 144 GB

molecule {
0 1
N    -0.069579945097   0.430449634685   0.000000000000
O     0.961484628022  -0.189175047824   0.000000000000
H    -0.891904677634  -0.241274586861   0.000000000000}

set basis cc-pV(Q+d)Z
 
optimize("wB97X-V")
frequencies("wB97X-V")