memory 144 GB

molecule {
0 1
N     0.549269328753   0.000000000000   0.000000000000
N    -0.549269328753   0.000000000000   0.000000000000}

set basis cc-pV(Q+d)Z
 
optimize("wB97X-V")
frequencies("wB97X-V")