memory 144 GB

molecule {
0 1
N     0.000000000000   0.000000000000  -1.102291942126
N     0.000000000000   0.000000000000   0.001494698075
O     0.000000000000   0.000000000000   1.159797248627}

set basis cc-pV(Q+d)Z
 
optimize("wB97X-V")
frequencies("wB97X-V")