memory 144 GB

molecule {
0 3
S 0.0000000000 0.0000000000 0.0000000000
S 0.0000000000 0.0000000000 1.8968845900
}

set reference uks
set basis cc-pV(Q+d)Z

optimize("WB97X-V")
frequencies("WB97X-V")
