memory 144 GB

molecule {
0 1
H 0.0000000000 0.0000000000 0.0000000000
C 0.0000000000 0.0000000000 1.0879000000
H 1.0256819563 0.0000000000 1.4505333333
H -0.5128409782 0.8882666304 1.4505333333
H -0.5128409782 -0.8882666304 1.4505333333
symmetry c1
}

set dynamic_level 1
set basis aug-cc-pV(D+d)Z
set full_hess_every 1
 
optimize("wB97M-V")
frequencies("wB97M-V")
