memory 144 GB

molecule {
0 1
Si 0.0000000000 0.0000000000 0.0000000000
O 0.0000000000 0.0000000000 1.5170406700
}

set dynamic_level 1
set basis aug-cc-pV(D+d)Z
 
optimize("wB97X-V")
frequencies("wB97X-V")
