memory 144 GB

molecule {
0 1
Cl 0.0000000000 0.0000000000 0.0000000000
C 0.0000000000 0.0000000000 1.6357056100
N 0.0000000000 0.0000000000 2.7976884200
}

set dynamic_level 1
set basis aug-cc-pV(Q+d)Z
 
optimize("wB97X-V")
frequencies("wB97X-V")
