memory 144 GB

molecule {
0 1
C     0.006046262393  -0.000813292455  -0.000385939523
O     1.185352396207  -0.156985018164  -0.075819478883
H    -0.491575714541   0.971070572654  -0.181006017508
H    -0.699831331517  -0.813339488707   0.257219384156}

set basis aug-cc-pV(Q+d)Z
 
optimize("wB97X-V")
frequencies("wB97X-V")