memory 144 GB

molecule {
0 1
C    -0.026590255247  -0.000020489742   0.000000000000
N     1.117415244719  -0.000587529582   0.000000000000
H    -1.090824989472   0.000608024615   0.000000000000}

set basis aug-cc-pV(Q+d)Z
 
optimize("wB97X-V")
frequencies("wB97X-V")