memory 144 GB

molecule {
0 1
O    -0.338100400727   0.445851178655   0.000000000000
Cl    1.256954004629  -0.121399274218   0.000000000000
H    -0.918853603902  -0.324451899146   0.000000000000}

set basis aug-cc-pV(Q+d)Z
 
optimize("wB97X-V")
frequencies("wB97X-V")