memory 144 GB

molecule {
0 1
Cl    1.404266965154  -0.804667131488   0.000000000000
C    -0.153202586463  -0.329182484114   0.000000000000
N    -1.251064373399   0.005912380558   0.000000000000}

set basis cc-pV(Q+d)Z
 
optimize("WB97M-V")
frequencies("WB97M-V")