memory 144 GB

molecule {
0 1
Cl    0.834210788250   0.000000000000   0.000000000000
F    -0.834210788250   0.000000000000   0.000000000000}

set basis cc-pV(Q+d)Z
 
optimize("WB97M-V")
frequencies("WB97M-V")