memory 144 GB

molecule {
0 1
N    -0.002342519343  -0.000555376775   0.261172999393
H    -0.523368067527  -0.788066482541  -0.093533220342
H    -0.419829492571   0.848266481111  -0.089041172584
H     0.945540079441  -0.059644621795  -0.078598606467}

set basis cc-pV(Q+d)Z
 
optimize("WB97M-V")
frequencies("WB97M-V")