memory 144 GB

molecule {
0 1
O     0.000000000000   0.000000000000  -1.265658054272
C     0.000000000000   0.000000000000  -0.107611064561
S     0.000000000000   0.000000000000   1.432269118117}

set basis cc-pV(Q+d)Z
 
optimize("WB97M-V")
frequencies("WB97M-V")