memory 144 GB

molecule {
0 1
S    -0.001150325421   0.486356984763   0.000000000000
O     1.240019799411  -0.240247141680   0.000000000000
O    -1.238869473990  -0.246109843082   0.000000000000}

set basis cc-pV(Q+d)Z
 
optimize("WB97M-V")
frequencies("WB97M-V")