memory 144 GB

molecule {
0 3
S 0.0000000000 0.0000000000 0.0000000000
O 0.0000000000 0.0000000000 1.4862145500
}

set reference uks
set basis cc-pV(Q+d)Z
 
optimize("WB97M-V")
frequencies("WB97M-V")
