memory 144 GB

molecule {
0 1
C    -0.103910856415   0.008245353545   0.001088210600
S     1.501784397759  -0.119456886931  -0.015615823698
H    -0.672538376561   0.271493563704   0.890615697200
H    -0.725339302949  -0.160344325059  -0.876008681061}

set basis aug-cc-pV(Q+d)Z
 
optimize("MP2")
frequencies("MP2")