memory 144 GB

molecule {
0 1
Cl    0.632559482786   0.000000000000   0.000000000000
H    -0.632559482786   0.000000000000   0.000000000000}

set basis aug-cc-pV(Q+d)Z
 
optimize("MP2")
frequencies("MP2")