memory 144 GB

molecule {
0 1
N     0.549269328753   0.000000000000   0.000000000000
N    -0.549269328753   0.000000000000   0.000000000000}

set basis aug-cc-pV(Q+d)Z
 
optimize("MP2")
frequencies("MP2")