memory 144 GB

molecule {
0 1
O     0.562242499669   0.000000000000   0.000000000000
C    -0.562242499669   0.000000000000   0.000000000000}

set basis aug-cc-pV(Q+d)Z
 
optimize("DSD-BLYP-D3BJ")
frequencies("DSD-BLYP-D3BJ")