#
# 02_C2H2 scanfunc/aug-cc-pvt(+d)z
#
! scanfunc d3bj aug-cc-pvt(+d)z def2/j opt xyzfile numfreq usesym

*xyz 0 1
C            0.000000000          0.000000000         -0.598584835
C            0.000000000          0.000000000          0.598584827
H            0.000000000          0.000000000         -1.664429739
H            0.000000000          0.000000000          1.664429747
*

%pal
nprocs 24
end

