#
# 04_CCl2 scanfunc/aug-cc-pvt(+d)z
#
! scanfunc d3bj aug-cc-pvt(+d)z def2/j opt xyzfile numfreq

*xyz 0 1
C           -0.000001096         -0.034087471          0.023432751
Cl          -0.000006529          0.957613518         -1.373095207
Cl           0.000007625          0.959794548          1.418391908
*

%pal
nprocs 24
end

