#
# 12_CS2 scanfunc/aug-cc-pvt(+d)z
#
! scanfunc d3bj aug-cc-pvt(+d)z def2/j opt xyzfile numfreq

*xyz 0 1
S           0.000000000         0.000000000          1.550022582
C           0.000000000         0.000000000          0.000000099
S           0.000000000         0.000000000         -1.550022427
*

%pal
nprocs 24
end

