#
# 18_H2S scanfunc/aug-cc-pvt(+d)z
#
! scanfunc d3bj aug-cc-pvt(+d)z def2/j opt xyzfile numfreq

*xyz 0 1
S           -0.001470633          0.617319337         -0.000000023
H            0.970605688         -0.306349104         -0.000000002
H           -0.969135055         -0.310970228          0.000000025
*

%pal
nprocs 24
end

