#
# 20_HCN scanfunc/aug-cc-pvt(+d)z
#
! scanfunc d3bj aug-cc-pvt(+d)z def2/j opt xyzfile numfreq

*xyz 0 1
C           0.000000000         0.000000000         -0.025909074
N           0.000000000         0.000000000          1.121277177
H           0.000000000         0.000000000         -1.095368103
*

%pal
nprocs 24
end

