#
# 24_N2 scanfunc/aug-cc-pvt(+d)z
#
! scanfunc d3bj aug-cc-pvt(+d)z def2/j opt xyzfile numfreq

*xyz 0 1
N            0.546600014         -0.000000000         -0.000000000
N           -0.546600014          0.000000000          0.000000000
*

%pal
nprocs 24
end

