#
# 30_SO2 scanfunc/aug-cc-pvt(+d)z
#
! scanfunc d3bj aug-cc-pvt(+d)z def2/j opt xyzfile numfreq

*xyz 0 1
S           -0.001418646          0.484606293         -0.000000013
O            1.234874832         -0.238706427         -0.000000091
O           -1.233456186         -0.245899866          0.000000104
*

%pal
nprocs 24
end

