memory 144 GB

molecule {
0 1
B     0.000025702137  -0.000052552589  -0.198407020528
H    -0.399622606768  -1.029858472420   0.215550091991
H    -0.171134703482   0.990434479161   0.419174884486
H     0.570731623988   0.039476540557  -1.230190221591}

set basis aug-cc-pV(Q+d)Z
set step_type nr
set dynamic_level 1

optimize("B2PLYP-D3BJ")
frequencies("B2PLYP-D3BJ")
