memory 144 GB

molecule {
0 1
C     0.000000000000   0.062629493479   0.000000000000
Cl    0.000000000000   0.968685269334  -1.404771567375
Cl    0.000000000000   0.852005827204   1.473501008275}

set basis aug-cc-pV(Q+d)Z
 
optimize("B2PLYP-D3BJ")
frequencies("B2PLYP-D3BJ")