memory 144 GB

molecule {
0 1
C     0.000000000000   0.145395904951   0.000000000000
F     0.000000000000   0.927302045077  -1.034778476372
F     0.000000000000   0.927302045077   1.034778476372}

set basis aug-cc-pV(Q+d)Z
 
optimize("B2PLYP-D3BJ")
frequencies("B2PLYP-D3BJ")