memory 144 GB

molecule {
0 1
C            0.000128161          0.000006859         -0.000046363
H           -0.025380793         -0.000000920          1.085340864
H           -0.503031713          0.886470488         -0.373856358
H            1.031948482          0.000012964         -0.337764650
H           -0.503023875         -0.886455093         -0.373871005
}

set basis aug-cc-pV(Q+d)Z
 
optimize("B2PLYP-D3BJ")
frequencies("B2PLYP-D3BJ")
