memory 144 GB

molecule {
0 1
S     1.553518053089   0.000503575617   0.000000000000
C     0.000000000000  -0.000008265748   0.000000000000
S    -1.553517799084  -0.000495315161   0.000000000000}

set basis aug-cc-pV(Q+d)Z
 
optimize("B2PLYP-D3BJ")
frequencies("B2PLYP-D3BJ")