memory 144 GB

molecule {
0 1
C     0.000000000000   0.000000000000   0.011304024282
S     0.000000000000   0.000000000000   1.528395973555}

set basis aug-cc-pV(Q+d)Z
 
optimize("B2PLYP-D3BJ")
frequencies("B2PLYP-D3BJ")