memory 144 GB

molecule {
0 1
F     0.000000000000   0.000000000000  -0.689762285134
F     0.000000000000   0.000000000000   0.689762285134}

set basis aug-cc-pV(Q+d)Z
 
optimize("B2PLYP-D3BJ")
frequencies("B2PLYP-D3BJ")