memory 144 GB

molecule {
0 1
S    -0.001427249147   0.605319027500   0.000000000000
H     0.960281633594  -0.300388517999   0.000000000000
H    -0.958854384446  -0.304930504209   0.000000000000}

set basis aug-cc-pV(Q+d)Z
 
optimize("B2PLYP-D3BJ")
frequencies("B2PLYP-D3BJ")