memory 144 GB

molecule {
0 1
    H           -0.000000000000     0.887019924760    -0.627210214550
    C           -0.000000000000     0.000000000000     0.000000185637
    H            0.887020023805     0.000000000000     0.627209109373
    H           -0.887020023805    -0.000000000000     0.627209109373
    H            0.000000000000    -0.887019924760    -0.627210214550
}

set basis aug-cc-pV(Q+d)Z
 
frequencies("WB97M-V")
optimize("WB97M-V")
frequencies("WB97M-V")
