memory 144 GB

molecule {
0 1
    P           -0.000642334717    -0.000144271771     0.068264858497
    H           -0.649671678266    -0.986219802033    -0.707396007750
    H           -0.519924415763     1.064067651284    -0.701764174584
    H            1.189337142324    -0.073413905515    -0.688842360107
}

set basis aug-cc-pV(Q+d)Z

frequencies("WB97M-V") 
optimize("WB97M-V")
frequencies("WB97M-V")
