memory 144 GB

molecule {
0 1
Cl   -1.005301993365   0.000000000000   0.000000000000
Cl    1.005301993365   0.000000000000   0.000000000000}

set basis aug-cc-pV(Q+d)Z
 
optimize("WB97M-V")
frequencies("WB97M-V")